(set-logic HORN)
(declare-fun Q_n0 (Int Int Int Int Int Int Int Int Int Int Int Int) Bool)
(declare-fun Q_exit (Int Int Int Int Int Int Int Int Int Int Int Int) Bool)
(declare-fun Q_n1 (Int Int Int Int Int Int Int Int Int Int Int Int) Bool)
(declare-fun Q_n1_1 (Int Int Int Int Int Int Int Int Int Int Int Int) Bool)
(declare-fun Q_n1_1a (Int Int Int Int Int Int Int Int Int Int Int Int) Bool)
(declare-fun Q_n2 (Int Int Int Int Int Int Int Int Int Int Int Int) Bool)
(declare-fun Q_n2_1 (Int Int Int Int Int Int Int Int Int Int Int Int) Bool)
(declare-fun Q_n2_1b (Int Int Int Int Int Int Int Int Int Int Int Int) Bool)
(assert (forall ((gradeo Int) (gradea Int) (gradeb Int) (gradem Int) (ro Int) (ra Int) (rb Int) (rm Int) (reso Int) (resa Int) (resb Int) (resm Int)) (=> (and (= gradeo gradea) (= gradea gradeb) (= gradeb gradem) (= ro ra) (= ra rb) (= rb rm) (= reso resa) (= resa resb) (= resb resm)) (Q_n0 gradeo gradea gradeb gradem ro ra rb rm reso resa resb resm))))
(assert (forall ((gradeo Int) (gradea Int) (gradeb Int) (gradem Int) (ro Int) (ra Int) (rb Int) (rm Int) (reso Int) (resa Int) (resb Int) (resm Int)) (=> (Q_n0 gradeo gradea gradeb gradem ro ra rb rm reso resa resb resm) true)))
(assert (forall ((gradeo Int) (gradea Int) (gradeb Int) (gradem Int) (ro Int) (ra Int) (rb Int) (rm Int) (reso Int) (resa Int) (resb Int) (resm Int)) (=> (Q_n0 gradeo gradea gradeb gradem ro ra rb rm reso resa resb resm) (Q_n1 gradeo gradea gradeb gradem ro ra rb rm reso resa resb resm))))
(assert (forall ((gradeo Int) (gradea Int) (gradeb Int) (gradem Int) (ro Int) (ra Int) (rb Int) (rm Int) (reso Int) (resa Int) (resb Int) (resm Int)) (=> (Q_n0 gradeo gradea gradeb gradem ro ra rb rm reso resa resb resm) (Q_n2 gradeo gradea gradeb gradem ro ra rb rm reso resa resb resm))))
(assert (forall ((gradeo Int) (gradea Int) (gradeb Int) (gradem Int) (ro Int) (ra Int) (rb Int) (rm Int) (reso Int) (resa Int) (resb Int) (resm Int)) (=> (Q_n1 gradeo gradea gradeb gradem ro ra rb rm reso resa resb resm) (= (= gradeo 1) (= gradea 1) (= gradeb 1) (= gradem 1)))))
(assert (forall ((gradeo Int) (gradea Int) (gradeb Int) (gradem Int) (ro Int) (ra Int) (rb Int) (rm Int) (reso Int) (resa Int) (resb Int) (resm Int)) (=> (and (= gradem 1) (= gradeb 1) (= gradea 1) (= gradeo 1) (Q_n1 gradeo gradea gradeb gradem ro ra rb rm reso resa resb resm)) (Q_n1_1 gradeo gradea gradeb gradem ro ra rb rm reso resa resb resm))))
(assert (forall ((gradeo Int) (gradea Int) (gradeb Int) (gradem Int) (ro Int) (ra Int) (rb Int) (rm Int) (reso Int) (resa Int) (resb Int) (resm Int)) (=> (Q_n1_1 gradeo gradea gradeb gradem ro ra rb rm reso resa resb resm) true)))
(assert (forall ((gradeo Int) (gradea Int) (gradeb Int) (gradem Int) (ro Int) (ra Int) (rb Int) (rm Int) (reso Int) (resa Int) (resb Int) (resm Int)) (=> (Q_n1_1 gradeo gradea gradeb gradem ro ra rb rm reso resa resb resm) (Q_n1_1a gradeo gradea gradeb gradem ro ra rb rm reso resa resb resm))))
(assert (forall ((gradeo Int) (gradea Int) (gradeb Int) (gradem Int) (ro Int) (ra Int) (rb Int) (rm Int) (reso Int) (resa Int) (resb Int) (resm Int) (ro1 Int) (rb1 Int) (rm1 Int) (resa1 Int)) (=> (Q_n1_1a gradeo gradea gradeb gradem ro ra rb rm reso resa resb resm) true)))
(assert (forall ((gradeo Int) (gradea Int) (gradeb Int) (gradem Int) (ro Int) (ra Int) (rb Int) (rm Int) (reso Int) (resa Int) (resb Int) (resm Int) (ro1 Int) (rb1 Int) (rm1 Int) (resa1 Int)) (=> (and (= rm1 1) (= rb1 1) (= resa1 1) (= ro1 1) (Q_n1_1a gradeo gradea gradeb gradem ro ra rb rm reso resa resb resm)) (Q_exit gradeo gradea gradeb gradem ro1 ra rb1 rm1 reso resa1 resb resm))))
(assert (forall ((gradeo Int) (gradea Int) (gradeb Int) (gradem Int) (ro Int) (ra Int) (rb Int) (rm Int) (reso Int) (resa Int) (resb Int) (resm Int)) (=> (Q_n2 gradeo gradea gradeb gradem ro ra rb rm reso resa resb resm) (= (not (= gradeo 1)) (not (= gradea 1)) (not (= gradeb 1)) (not (= gradem 1))))))
(assert (forall ((gradeo Int) (gradea Int) (gradeb Int) (gradem Int) (ro Int) (ra Int) (rb Int) (rm Int) (reso Int) (resa Int) (resb Int) (resm Int)) (=> (and (not (= gradem 1)) (not (= gradeb 1)) (not (= gradea 1)) (not (= gradeo 1)) (Q_n2 gradeo gradea gradeb gradem ro ra rb rm reso resa resb resm)) (Q_n2_1 gradeo gradea gradeb gradem ro ra rb rm reso resa resb resm))))
(assert (forall ((gradeo Int) (gradea Int) (gradeb Int) (gradem Int) (ro Int) (ra Int) (rb Int) (rm Int) (reso Int) (resa Int) (resb Int) (resm Int)) (=> (Q_n2_1 gradeo gradea gradeb gradem ro ra rb rm reso resa resb resm) true)))
(assert (forall ((gradeo Int) (gradea Int) (gradeb Int) (gradem Int) (ro Int) (ra Int) (rb Int) (rm Int) (reso Int) (resa Int) (resb Int) (resm Int)) (=> (Q_n2_1 gradeo gradea gradeb gradem ro ra rb rm reso resa resb resm) (Q_n2_1b gradeo gradea gradeb gradem ro ra rb rm reso resa resb resm))))
(assert (forall ((gradeo Int) (gradea Int) (gradeb Int) (gradem Int) (ro Int) (ra Int) (rb Int) (rm Int) (reso Int) (resa Int) (resb Int) (resm Int) (resb1 Int) (resm1 Int)) (=> (Q_n2_1b gradeo gradea gradeb gradem ro ra rb rm reso resa resb resm) true)))
(assert (forall ((gradeo Int) (gradea Int) (gradeb Int) (gradem Int) (ro Int) (ra Int) (rb Int) (rm Int) (reso Int) (resa Int) (resb Int) (resm Int) (resb1 Int) (resm1 Int)) (=> (and (= resm1 2) (= resb1 2) (Q_n2_1b gradeo gradea gradeb gradem ro ra rb rm reso resa resb resm)) (Q_exit gradeo gradea gradeb gradem ro ra rb rm reso resa resb1 resm1))))
(assert (forall ((gradeo Int) (gradea Int) (gradeb Int) (gradem Int) (ro Int) (ra Int) (rb Int) (rm Int) (reso Int) (resa Int) (resb Int) (resm Int)) (=> (Q_exit gradeo gradea gradeb gradem ro ra rb rm reso resa resb resm) (and (and (or (= gradeo gradea) (= gradem gradea)) (or (= gradeo gradeb) (= gradem gradeb)) (or (not (= gradeo gradea)) (not (= gradeo gradeb)) (= gradem gradeo))) (and (or (= ro ra) (= rm ra)) (or (= ro rb) (= rm rb)) (or (not (= ro ra)) (not (= ro rb)) (= rm ro))) (and (or (= reso resa) (= resm resa)) (or (= reso resb) (= resm resb)) (or (not (= reso resa)) (not (= reso resb)) (= resm reso)))))))
(check-sat)
